% File represents an instance of a Composite Structure problem to be solved by a CP framework
% Created on 2025-03-26 10:41:22.850
T = 50;
n = 16;
m = 24;
edges = [(1, 2),
(5, 6),
(9, 10),
(13, 14),
(3, 2),
(7, 6),
(10, 11),
(14, 15),
(3, 4),
(7, 8),
(11, 12),
(15, 16),
(5, 1),
(9, 5),
(13, 9),
(6, 2),
(10, 6),
(14, 10),
(7, 3),
(7, 11),
(15, 11),
(8, 4),
(8, 12),
(16, 12)];
counts = [|8, 14, 8, 2,
|6, 12, 6, 2,
|8, 12, 8, 4,
|6, 12, 6, 4,
|10, 16, 10, 2,
|8, 14, 8, 2,
|8, 14, 8, 4,
|6, 14, 6, 4,
|10, 22, 10, 2,
|10, 16, 10, 2,
|8, 14, 8, 2,
|6, 12, 6, 2,
|12, 22, 12, 4,
|10, 20, 10, 4,
|10, 16, 10, 2,
|8, 14, 8, 2|];
